(set-logic QF_S)
(set-option :strings-exp true)
(set-option :produce-models true)
(declare-fun sigmaStar_0 () String)
(declare-fun sigmaStar_2 () String)
(declare-fun literal_6 () String)
(assert (= literal_6 "\x2f\x63\x6f\x75\x72\x73\x65\x2f\x69\x6d\x70\x6f\x72\x74\x2f\x63\x6f\x75\x72\x73\x65\x2f\x69\x6d\x70\x6f\x72\x74\x2f\x6d\x6f\x64\x2e\x70\x68\x70"))
(assert (str.in.re literal_6 (re.++ (re.* re.allchar) (re.++ (str.to.re "\x2f\x65\x76\x69\x6c") (re.* re.allchar)))))
(check-sat)
(get-model)
